p edge 50 368
e 1 2
e 1 3
e 1 5
e 1 6
e 1 8
e 1 11
e 1 12
e 1 14
e 1 17
e 1 18
e 1 21
e 1 22
e 1 23
e 1 25
e 1 26
e 1 32
e 1 40
e 1 46
e 1 50
e 2 6
e 2 13
e 2 14
e 2 19
e 2 26
e 2 30
e 2 35
e 2 37
e 2 43
e 2 44
e 2 50
e 3 5
e 3 10
e 3 13
e 3 18
e 3 20
e 3 21
e 3 26
e 3 27
e 3 28
e 3 29
e 3 32
e 3 34
e 3 38
e 3 39
e 3 40
e 3 43
e 3 44
e 3 46
e 3 49
e 3 50
e 4 6
e 4 12
e 4 19
e 4 30
e 4 35
e 4 40
e 4 42
e 4 43
e 4 50
e 5 7
e 5 12
e 5 14
e 5 26
e 5 28
e 5 30
e 5 31
e 5 38
e 5 50
e 6 10
e 6 12
e 6 13
e 6 15
e 6 16
e 6 18
e 6 20
e 6 21
e 6 22
e 6 23
e 6 25
e 6 27
e 6 30
e 6 31
e 6 35
e 6 36
e 6 37
e 6 39
e 6 40
e 7 8
e 7 14
e 7 17
e 7 20
e 7 21
e 7 25
e 7 26
e 7 29
e 7 42
e 7 45
e 8 10
e 8 11
e 8 15
e 8 17
e 8 18
e 8 27
e 8 29
e 8 30
e 8 32
e 8 37
e 8 39
e 8 40
e 8 41
e 8 42
e 8 43
e 9 10
e 9 14
e 9 15
e 9 17
e 9 19
e 9 22
e 9 26
e 9 35
e 9 37
e 9 39
e 9 43
e 9 46
e 9 49
e 10 11
e 10 12
e 10 21
e 10 27
e 10 28
e 10 29
e 10 39
e 10 41
e 10 48
e 11 12
e 11 15
e 11 22
e 11 26
e 11 29
e 11 30
e 11 31
e 11 33
e 11 34
e 11 39
e 11 45
e 11 49
e 12 17
e 12 22
e 12 25
e 12 39
e 12 40
e 12 42
e 12 44
e 12 45
e 12 48
e 13 14
e 13 16
e 13 17
e 13 21
e 13 25
e 13 28
e 13 30
e 13 32
e 13 33
e 13 36
e 13 38
e 13 40
e 13 43
e 13 49
e 14 22
e 14 26
e 14 27
e 14 28
e 14 30
e 14 33
e 14 35
e 14 37
e 14 38
e 14 41
e 14 49
e 15 19
e 15 20
e 15 22
e 15 27
e 15 29
e 15 46
e 15 49
e 15 50
e 16 18
e 16 20
e 16 22
e 16 24
e 16 32
e 16 38
e 16 43
e 16 46
e 17 18
e 17 21
e 17 24
e 17 25
e 17 27
e 17 33
e 17 34
e 17 35
e 17 36
e 17 39
e 17 42
e 17 45
e 17 46
e 18 20
e 18 24
e 18 27
e 18 31
e 18 32
e 18 35
e 18 39
e 18 41
e 18 42
e 18 43
e 18 48
e 19 21
e 19 23
e 19 30
e 19 33
e 19 38
e 19 42
e 20 21
e 20 22
e 20 23
e 20 24
e 20 26
e 20 31
e 20 33
e 20 38
e 20 41
e 20 48
e 21 26
e 21 33
e 21 34
e 21 41
e 21 42
e 21 47
e 22 24
e 22 25
e 22 29
e 22 30
e 22 34
e 22 35
e 22 36
e 22 38
e 22 39
e 22 40
e 22 43
e 22 46
e 22 47
e 23 28
e 23 32
e 23 35
e 23 42
e 23 45
e 23 48
e 23 49
e 24 27
e 24 31
e 24 32
e 24 34
e 24 37
e 24 39
e 24 40
e 24 41
e 24 45
e 24 49
e 25 26
e 25 33
e 25 35
e 25 38
e 25 46
e 25 49
e 26 35
e 26 40
e 26 42
e 26 48
e 27 32
e 27 35
e 27 37
e 27 39
e 27 40
e 27 41
e 27 44
e 27 45
e 27 49
e 28 29
e 28 30
e 28 34
e 28 41
e 28 42
e 28 44
e 28 46
e 28 47
e 29 32
e 29 33
e 29 37
e 29 47
e 29 49
e 29 50
e 30 34
e 30 41
e 30 42
e 30 50
e 31 33
e 31 38
e 31 39
e 31 44
e 31 47
e 32 33
e 32 39
e 32 40
e 32 41
e 32 45
e 33 34
e 33 36
e 33 37
e 33 38
e 33 41
e 33 47
e 33 48
e 33 49
e 33 50
e 34 35
e 34 40
e 34 45
e 35 36
e 35 46
e 35 50
e 36 39
e 36 41
e 36 43
e 36 49
e 37 39
e 37 44
e 37 46
e 37 49
e 38 41
e 38 42
e 38 43
e 38 44
e 38 45
e 38 46
e 38 49
e 39 47
e 39 50
e 40 48
e 40 49
e 41 46
e 42 45
e 42 50
e 43 44
e 43 45
e 43 50
e 44 46
e 44 49
e 45 47
e 46 47
e 46 48
e 47 48
e 48 49
e 48 50
e 49 50
